&GLOBAL
  PRINT_LEVEL LOW
  WALLTIME 720000
   PROJECT ch3f
!  RUN_TYPE WFN_OPT
!   RUN_TYPE GEO_OPT
  RUN_TYPE MD
   SEED 300
&END GLOBAL

&MOTION

  &MD
   COMVEL_TOL 0.000005
   ENSEMBLE NVT
   STEPS 3000000 
   TIMESTEP 0.5
   TEMPERATURE 300.0
!   TEMP_TOL 40

    &THERMOSTAT
      TYPE CSVR
      &CSVR
        TIMECON 100.
      &END CSVR
    &END THERMOSTAT
  &END MD
 
  &FREE_ENERGY
    &METADYN
       USE_PLUMED .TRUE.
       PLUMED_INPUT_FILE ./plumed.dat
    &END METADYN
  &END FREE_ENERGY

  &PRINT
   &VELOCITIES
    FORMAT XYZ
   &END VELOCITIES
!   &RESTART
!    &EACH
!     MD 10000
!    &END EACH
!   &END RESTART
  &END PRINT


&END MOTION



&FORCE_EVAL
  METHOD Quickstep
  &DFT
   CHARGE -1
    &QS
      METHOD PM6
      !METHOD AM1
      &SE
      &END SE
    &END QS
    &SCF
      !SCF_GUESS ATOMIC
      EPS_SCF 1.0E-5
      MAX_SCF 50
       &OUTER_SCF
          EPS_SCF 1.0E-5
          MAX_SCF 500
       &END
    &END SCF
  &END DFT


  &SUBSYS
    &CELL
      ABC 10.0 10.0 10.0
      PERIODIC NONE
    &END CELL

    &COORD
  C         4.7155502363        4.9731215093        5.2215218387
  F         3.7406102566        7.5734195739        4.1538587200
  H         4.9556993929        5.2313301440        4.2093474985
  H         4.9870046951        5.8421489780        5.7447375119
  H         3.6741199942        4.6922555025        5.3951199950
 Cl         5.8105659110        3.6083026052        5.5302352102
     &END COORD
   &END SUBSYS

&END FORCE_EVAL

